(set-logic ALL)
(declare-const BAV1 Bool)
(declare-const BAV2 Bool)
(declare-const BAV3 Bool)
(declare-const BAV4 Bool)
(declare-const BAV5 Bool)
(declare-const BAV6 Bool)
(declare-const BAV7 Bool)
(declare-const GEN3 Int)
(declare-const GEN2 Int)
(declare-const GEN1 Real)
(declare-fun _substvar_15_ () Real)
(declare-fun _substvar_17_ () Real)
(assert (and (<= GEN1 _substvar_15_) (and (<= GEN1 _substvar_15_) (and (<= GEN1 _substvar_15_) (= (* _substvar_15_ _substvar_15_) (+ GEN2 (* _substvar_17_ (* _substvar_17_ (- GEN3)))))))))
(assert (= BAV1 (and (<= GEN1 _substvar_15_) (and (<= GEN1 _substvar_15_) (and (<= GEN1 _substvar_15_) (= (* _substvar_15_ _substvar_15_) (+ GEN2 (* _substvar_17_ (* _substvar_17_ (- GEN3))))))))))
(assert (= BAV2 (<= GEN1 _substvar_15_)))
(assert (= BAV3 (and (<= GEN1 _substvar_15_) (and (<= GEN1 _substvar_15_) (= (* _substvar_15_ _substvar_15_) (+ GEN2 (* _substvar_17_ (* _substvar_17_ (- GEN3)))))))))
(assert (= BAV4 (<= GEN1 _substvar_15_)))
(assert (= BAV5 (and (<= GEN1 _substvar_15_) (= (* _substvar_15_ _substvar_15_) (+ GEN2 (* _substvar_17_ (* _substvar_17_ (- GEN3))))))))
(assert (= BAV6 (<= GEN1 _substvar_15_)))
(assert (= BAV7 (= (* _substvar_15_ _substvar_15_) (+ GEN2 (* _substvar_17_ (* _substvar_17_ (- GEN3)))))))
(check-sat)
(get-model)